<?xml version = "1.0" encoding="UTF-8" standalone="yes"?>
<CPLEXSolution version="1.2">
 <header
   problemName="IloCplex"
   solutionName="p0"
   solutionIndex="-1"
   objectiveValue="0"
   solutionTypeValue="3"
   solutionTypeString="primal"
   solutionStatusValue="127"
   solutionStatusString="integer feasible solution"
   solutionMethodString="mip"
   primalFeasible="0"
   dualFeasible="0"
   writeLevel="3"/>
 <quality
   epInt="1.0000000000000001e-05"
   epRHS="9.9999999999999995e-07"
   maxIntInfeas="0"
   maxPrimalInfeas="0"
   maxX="658"
   maxSlack="558"/>
 <variables>
  <variable index="21" value="1"/>
  <variable index="152" value="1"/>
  <variable index="256" value="1"/>
  <variable index="349" value="1"/>
  <variable index="444" value="1"/>
  <variable index="578" value="1"/>
  <variable index="620" value="1"/>
  <variable index="804" value="1"/>
  <variable index="901" value="1"/>
  <variable index="957" value="1"/>
  <variable index="1083" value="1"/>
  <variable index="1191" value="1"/>
  <variable index="1241" value="1"/>
  <variable index="1398" value="1"/>
  <variable index="1475" value="1"/>
  <variable index="1560" value="1"/>
  <variable index="1674" value="1"/>
  <variable index="1713" value="1"/>
  <variable index="1867" value="1"/>
  <variable index="1971" value="1"/>
  <variable index="2100" value="1"/>
  <variable index="2127" value="1"/>
  <variable index="2214" value="1"/>
  <variable index="2389" value="1"/>
  <variable index="2417" value="1"/>
  <variable index="2593" value="1"/>
  <variable index="2630" value="1"/>
  <variable index="2790" value="1"/>
  <variable index="2863" value="1"/>
  <variable index="2958" value="1"/>
  <variable index="3047" value="1"/>
  <variable index="3180" value="1"/>
  <variable index="3270" value="1"/>
  <variable index="3366" value="1"/>
  <variable index="3431" value="1"/>
  <variable index="3536" value="1"/>
  <variable index="3629" value="1"/>
  <variable index="3788" value="1"/>
  <variable index="3845" value="1"/>
  <variable index="4002" value="1"/>
  <variable index="4107" value="1"/>
  <variable index="4119" value="1"/>
  <variable index="4223" value="1"/>
  <variable index="4339" value="1"/>
  <variable index="4484" value="1"/>
  <variable index="4606" value="1"/>
  <variable index="4642" value="1"/>
  <variable index="4711" value="1"/>
  <variable index="4832" value="1"/>
  <variable index="4987" value="1"/>
  <variable index="5035" value="1"/>
  <variable index="5122" value="1"/>
  <variable index="5226" value="1"/>
  <variable index="5312" value="1"/>
  <variable index="5508" value="1"/>
  <variable index="5595" value="1"/>
  <variable index="5634" value="1"/>
  <variable index="5710" value="1"/>
  <variable index="5825" value="1"/>
  <variable index="5937" value="1"/>
  <variable index="6105" value="1"/>
  <variable index="6165" value="1"/>
  <variable index="6269" value="1"/>
  <variable index="6355" value="1"/>
  <variable index="6433" value="1"/>
  <variable index="6579" value="1"/>
  <variable index="6692" value="1"/>
  <variable index="6803" value="1"/>
  <variable index="6838" value="1"/>
  <variable index="6999" value="1"/>
  <variable index="7050" value="1"/>
  <variable index="7209" value="1"/>
  <variable index="7248" value="1"/>
  <variable index="7354" value="1"/>
  <variable index="7416" value="1"/>
  <variable index="7515" value="1"/>
  <variable index="7681" value="1"/>
  <variable index="7753" value="1"/>
  <variable index="7861" value="1"/>
  <variable index="7959" value="1"/>
  <variable index="8062" value="1"/>
  <variable index="8164" value="1"/>
  <variable index="8296" value="1"/>
  <variable index="8340" value="1"/>
  <variable index="8428" value="1"/>
  <variable index="8582" value="1"/>
  <variable index="8643" value="1"/>
  <variable index="8794" value="1"/>
  <variable index="8897" value="1"/>
  <variable index="8918" value="1"/>
  <variable index="9073" value="1"/>
  <variable index="9124" value="1"/>
  <variable index="9251" value="1"/>
  <variable index="9372" value="1"/>
  <variable index="9468" value="1"/>
  <variable index="9546" value="1"/>
  <variable index="9677" value="1"/>
  <variable index="9785" value="1"/>
  <variable index="9886" value="1"/>
  <variable index="9976" value="1"/>
  <variable index="10020" value="658"/>
 </variables>
</CPLEXSolution>
